20
1 0 3
2 0 7
2 1 5
3 0 3
3 1 10
3 2 1
4 0 11
4 1 7
4 2 11
4 3 9
5 0 19
5 1 3
5 2 19
5 3 10
5 4 15
6 0 17
6 1 7
6 2 18
6 3 8
6 4 16
6 5 13
7 0 19
7 1 12
7 2 13
7 3 10
7 4 8
7 5 19
7 6 12
8 0 10
8 1 20
8 2 3
8 3 19
8 4 20
8 5 7
8 6 4
8 7 16
9 0 19
9 1 3
9 2 16
9 3 1
9 4 5
9 5 18
9 6 17
9 7 4
9 8 19
10 0 1
10 1 2
10 2 7
10 3 12
10 4 18
10 5 5
10 6 1
10 7 2
10 8 5
10 9 4
11 0 12
11 1 12
11 2 16
11 3 2
11 4 4
11 5 14
11 6 15
11 7 16
11 8 16
11 9 10
11 10 3
12 0 15
12 1 15
12 2 1
12 3 15
12 4 20
12 5 13
12 6 10
12 7 13
12 8 15
12 9 8
12 10 9
12 11 3
13 0 17
13 1 8
13 2 2
13 3 16
13 4 2
13 5 13
13 6 13
13 7 11
13 8 4
13 9 20
13 10 10
13 11 3
13 12 14
14 0 13
14 1 2
14 2 13
14 3 13
14 4 4
14 5 11
14 6 6
14 7 1
14 8 1
14 9 7
14 10 6
14 11 1
14 12 13
14 13 2
15 0 8
15 1 2
15 2 18
15 3 8
15 4 3
15 5 11
15 6 17
15 7 7
15 8 3
15 9 11
15 10 7
15 11 6
15 12 12
15 13 7
15 14 6
16 0 17
16 1 13
16 2 8
16 3 1
16 4 11
16 5 8
16 6 8
16 7 9
16 8 7
16 9 18
16 10 8
16 11 19
16 12 15
16 13 20
16 14 8
16 15 16
17 0 9
17 1 8
17 2 3
17 3 10
17 4 4
17 5 1
17 6 14
17 7 17
17 8 4
17 9 2
17 10 13
17 11 18
17 12 10
17 13 8
17 14 14
17 15 1
17 16 3
18 0 8
18 1 6
18 2 15
18 3 10
18 4 8
18 5 6
18 6 18
18 7 11
18 8 18
18 9 18
18 10 11
18 11 16
18 12 13
18 13 10
18 14 18
18 15 3
18 16 3
18 17 18
19 0 4
19 1 16
19 2 19
19 3 2
19 4 7
19 5 2
19 6 5
19 7 2
19 8 15
19 9 7
19 10 13
19 11 17
19 12 12
19 13 18
19 14 17
19 15 15
19 16 7
19 17 1
19 18 12
